% demand
num_movements = 32;
loading_factor = [1100, 800, 1850, 1900, 1350, 850, 950, 1950, 800, 1800, 800, 800, 1850, 1500, 950, 950, 1000, 1650, 1550, 1600, 950, 1800, 1100, 1350, 1850, 1600, 1250, 1850, 1950, 850, 1150, 950];
pickup_time = [0, 0, 0, 0, 0, 1, 1, 2, 3, 4, 5, 5, 5, 5, 5, 5, 6, 9, 9, 10, 10, 10, 10, 12, 12, 12, 12, 13, 13, 13, 13, 13];
delivery_time = [5, 1, 2, 1, 1, 5, 3, 5, 5, 5, 6, 6, 10, 9, 9, 10, 10, 10, 12, 12, 13, 12, 12, 13, 13, 13, 13, 14, 14, 14, 14, 14];

% transporter definition
total_capacity = 7000;
num_decks = 3;
capacity = [3000, 1000, 3000];

% ways out of decks
num_ways_out = 1;
paths_out = array3d(decks, ways_out, decks, [
% ways out of deck d1
2, 3, 0, 

% ways out of deck d2
3, 0, 0, 

% ways out of deck d3
0, 0, 0,	

]);

